Set parameter TSPort to value 51199
Set parameter TokenServer to value "open-license1.lanl.gov"
Set parameter TimeLimit to value 256
Set parameter Threads to value 1
Gurobi Optimizer version 10.0.3 build v10.0.3rc0 (linux64)

CPU model: Intel(R) Xeon(R) CPU E5-2695 v4 @ 2.10GHz, instruction set [SSE2|AVX|AVX2]
Thread count: 36 physical cores, 72 logical processors, using up to 1 threads

Optimize a model with 0 rows, 598 columns and 0 nonzeros
Model fingerprint: 0x381b11d0
Model has 2589 quadratic objective terms
Variable types: 0 continuous, 598 integer (598 binary)
Coefficient statistics:
  Matrix range     [0e+00, 0e+00]
  Objective range  [2e+00, 3e+01]
  QObjective range [8e+00, 8e+00]
  Bounds range     [1e+00, 1e+00]
  RHS range        [0e+00, 0e+00]
Found heuristic solution: objective 0.0000000
Found heuristic solution: objective -1012.000000
Found heuristic solution: objective -3594.000000
Found heuristic solution: objective -3608.000000
Presolve removed 0 rows and 1 columns
Presolve time: 0.25s
Presolved: 2586 rows, 3183 columns, 7758 nonzeros
Variable types: 0 continuous, 3183 integer (3183 binary)

Root relaxation: objective -4.912000e+03, 695 iterations, 0.01 seconds (0.01 work units)

    Nodes    |    Current Node    |     Objective Bounds      |     Work
 Expl Unexpl |  Obj  Depth IntInf | Incumbent    BestBd   Gap | It/Node Time

     0     0 -4912.0000    0  597 -3608.0000 -4912.0000  36.1%     -    0s
     0     0 -4489.0000    0  818 -3608.0000 -4489.0000  24.4%     -    0s
     0     0 -4488.0000    0  820 -3608.0000 -4488.0000  24.4%     -    0s
     0     0 -4409.2500    0  881 -3608.0000 -4409.2500  22.2%     -    0s
     0     0 -4409.2500    0  873 -3608.0000 -4409.2500  22.2%     -    0s
     0     2 -4409.2500    0  873 -3608.0000 -4409.2500  22.2%     -    1s
   513   491 -3665.5000  126  597 -3608.0000 -4395.0000  21.8%  83.1    5s
   533   505 -4048.0543   14 1713 -3608.0000 -4048.0543  12.2%  80.0   10s
   543   511 -3941.0000   59 1987 -3608.0000 -3993.1254  10.7%  78.5   15s
   551   517 -3954.5774   10 2193 -3608.0000 -3954.5774  9.61%  77.3   20s
   560   523 -3646.0000  133 2471 -3608.0000 -3925.2211  8.79%  76.1   26s
   568   528 -3905.1965   45 2594 -3608.0000 -3905.1965  8.24%  75.0   32s
   571   530 -3818.5000   78 2638 -3608.0000 -3900.4747  8.11%  74.6   35s
   576   533 -3880.5000   73 2685 -3608.0000 -3885.7007  7.70%  74.0   40s
   584   539 -3806.5000   81 2708 -3608.0000 -3875.6521  7.42%  73.0   45s
   593   545 -3787.0000   85 2733 -3608.0000 -3870.7319  7.28%  71.9   50s
   604   552 -3796.5000   92 2769 -3608.0000 -3864.4318  7.11%  70.6   55s
   614   559 -3817.5000   79 2796 -3608.0000 -3860.2652  6.99%  69.4   60s
   627   567 -3855.8013   71 2786 -3608.0000 -3855.8013  6.87%  68.0   65s
   639   575 -3733.5000  108 2843 -3608.0000 -3851.5709  6.75%  66.7   70s
   653   585 -3755.5000   92 2817 -3608.0000 -3847.3074  6.63%  65.3   75s
   668   595 -3843.6933   45 2860 -3608.0000 -3843.6933  6.53%  63.8   80s
   681   603 -3640.0000  134 2859 -3608.0000 -3839.6498  6.42%  62.6   85s
   702   617 -3645.5000  132 2862 -3608.0000 -3836.1796  6.32%  60.7   90s
   718   630 -3836.0177   36 2507 -3608.0000 -3836.0177  6.32%   325   98s
   719   630 -3836.0177   58 2760 -3608.0000 -3836.0177  6.32%   325  105s
   723   633 -3836.0177   40 2845 -3608.0000 -3836.0177  6.32%   323  110s
   740   644 -3833.0929   15 2883 -3608.0000 -3833.0929  6.24%   315  115s
   752   652 -3829.7110    5 2873 -3608.0000 -3829.7110  6.14%   310  120s
   764   660 -3653.0000  129 2880 -3608.0000 -3827.6425  6.09%   305  125s
   778   670 -3825.4795   36 2895 -3608.0000 -3825.4795  6.03%   300  130s
   792   679 -3651.5000  131 2915 -3608.0000 -3823.8430  5.98%   295  135s
   814   694 -3817.5000   79 2916 -3608.0000 -3822.5188  5.95%   287  140s
   835   708 -3821.2554    4 2922 -3608.0000 -3821.2554  5.91%   279  145s
   856   722 -3820.5655   52 2952 -3608.0000 -3820.5655  5.89%   273  150s
   876   735 -3819.1799   73 2931 -3608.0000 -3819.1799  5.85%   266  155s
   897   749 -3818.1562   66 2950 -3608.0000 -3818.1562  5.82%   260  160s
   910   758 -3817.7686   61 2934 -3608.0000 -3817.7686  5.81%   256  170s
   913   762 -3813.6664   26 2848 -3608.0000 -3815.0199  5.74%   401  176s
   916   764 -3809.8287   27 2802 -3608.0000 -3814.3063  5.72%   410  180s
   920   766 -3805.9179   29 2764 -3608.0000 -3814.3063  5.72%   424  186s
   923   768 -3801.9407   31 2717 -3608.0000 -3814.3063  5.72%   434  190s
   927   771 -3798.2293   33 2678 -3608.0000 -3814.3063  5.72%   445  195s
   931   774 -3793.8321   35 2629 -3608.0000 -3814.3063  5.72%   456  200s
   935   776 -3789.7534   37 2585 -3608.0000 -3814.3063  5.72%   467  205s
   940   780 -3785.5760   39 2544 -3608.0000 -3814.3063  5.72%   480  211s
   943   782 -3781.2501   41 2508 -3608.0000 -3814.3063  5.72%   486  215s
   950   786 -3772.2432   44 2463 -3608.0000 -3814.3063  5.72%   499  220s
   957   791 -3766.7141   48 2421 -3608.0000 -3814.3063  5.72%   509  225s
   964   796 -3760.5513   51 2381 -3608.0000 -3814.3063  5.72%   518  230s
   973   802 -3755.7826   56 2320 -3608.0000 -3814.3063  5.72%   529  235s
   983   808 -3748.6541   61 2246 -3608.0000 -3814.3063  5.72%   539  240s
   990   813 -3740.0247   64 2214 -3608.0000 -3814.3063  5.72%   551  245s
  1001   820 -3731.4852   70 2154 -3608.0000 -3814.3063  5.72%   556  250s
  1019   832 -3717.4439   79 2088 -3608.0000 -3814.3063  5.72%   562  255s

Cutting planes:
  Gomory: 17
  MIR: 98
  Flow cover: 1140
  Zero half: 373
  Mod-K: 2
  RLT: 117
  BQP: 167

Explored 1022 nodes (579424 simplex iterations) in 256.00 seconds (291.11 work units)
Thread count was 1 (of 72 available processors)

Solution count 4: -3608 -3594 -1012 0 

Time limit reached
Best objective -3.608000000000e+03, best bound -3.814000000000e+03, gap 5.7095%

User-callback calls 20356, time in user-callback 0.09 sec

BQP_SOLUTION, 598, 2589, -1283.000000, 256.000655, -1, 1, -1, -1, -1, 1, -1, -1, -1, 1, -1, 1, -1, -1, -1, -1, 1, -1, -1, 1, -1, 1, -1, -1, -1, -1, 1, -1, -1, -1, -1, 1, -1, -1, -1, 1, -1, 1, -1, -1, -1, 1, -1, -1, 1, -1, -1, 1, -1, -1, -1, 1, 1, 1, -1, -1, 1, -1, -1, -1, -1, 1, 1, -1, -1, 1, 1, -1, -1, -1, -1, 1, -1, -1, 1, 1, -1, -1, -1, -1, -1, 1, 1, -1, 1, -1, 1, -1, -1, 1, 1, -1, -1, 1, -1, 1, -1, 1, 1, 1, 1, 1, 1, 1, -1, 1, -1, 1, -1, 1, 1, -1, 1, 1, -1, 1, -1, -1, -1, 1, 1, -1, -1, 1, -1, 1, -1, 1, 1, -1, 1, -1, 1, 1, -1, 1, -1, 1, -1, -1, 1, -1, 1, 1, 1, 1, -1, 1, 1, -1, -1, -1, 1, 1, -1, -1, 1, 1, 1, -1, 1, -1, 1, -1, 1, -1, 1, 1, -1, 1, -1, 1, 1, -1, -1, -1, 1, -1, 1, -1, 1, -1, 1, -1, -1, -1, -1, -1, -1, -1, 1, -1, -1, 1, -1, 1, -1, 1, -1, -1, -1, -1, -1, 1, -1, 1, 1, 1, 1, -1, 1, 1, -1, 1, -1, 1, -1, -1, 1, 1, 1, 1, -1, 1, -1, 1, 1, -1, 1, -1, 1, -1, -1, 1, 1, 1, -1, -1, 1, -1, 1, -1, -1, 1, 1, 1, -1, -1, 1, 1, 1, -1, 1, 1, 1, 1, -1, 1, 1, 1, 1, 1, -1, 1, 1, -1, -1, -1, 1, 1, -1, 1, -1, 1, 1, -1, 1, -1, 1, 1, -1, 1, -1, 1, 1, -1, 1, -1, 1, 1, -1, 1, -1, 1, 1, -1, 1, 1, 1, 1, -1, 1, -1, 1, 1, -1, -1, 1, -1, 1, -1, 1, -1, -1, 1, -1, 1, 1, 1, 1, -1, 1, 1, 1, 1, -1, 1, -1, 1, -1, 1, -1, -1, -1, -1, 1, 1, 1, -1, -1, -1, 1, -1, 1, -1, 1, 1, -1, 1, -1, -1, -1, 1, 1, -1, 1, 1, 1, 1, -1, 1, -1, 1, 1, 1, 1, -1, 1, -1, 1, 1, -1, 1, -1, 1, 1, -1, 1, -1, 1, 1, -1, -1, -1, 1, 1, -1, 1, -1, 1, 1, -1, 1, -1, -1, 1, 1, -1, -1, 1, 1, -1, 1, -1, -1, 1, -1, -1, 1, -1, -1, -1, 1, 1, -1, 1, -1, -1, -1, 1, -1, 1, -1, -1, 1, -1, -1, -1, 1, -1, 1, 1, -1, 1, -1, -1, 1, -1, 1, 1, -1, 1, -1, 1, 1, -1, 1, -1, 1, 1, 1, 1, 1, 1, -1, -1, -1, -1, 1, 1, -1, 1, 1, 1, 1, -1, 1, 1, 1, -1, -1, 1, 1, 1, 1, -1, 1, 1, 1, -1, 1, 1, 1, 1, -1, 1, 1, 1, 1, -1, -1, 1, 1, 1, -1, -1, 1, 1, 1, 1, -1, 1, 1, 1, 1, -1, 1, 1, 1, 1, -1, -1, 1, 1, -1, 1, -1, -1, 1, 1, -1, 1, 1, 1, -1, -1, -1, -1, 1, 1, -1, -1, -1, 1, 1, 1, 1, 1, 1, -1, 1, -1, -1, 1, -1, 1, -1, -1, 1, 1, 1, -1, -1, -1, 1, 1, -1, -1, 1, 1, 1, -1, 1, 1, -1, 1, -1, -1, 1, -1, 1, -1, -1, 1, 1, 1, -1, -1, -1, 1, -1, 1, -1, 1, -1, 1, 1, -1, 1, -1, 1, 1, -1, -1, 1, 1, 1, -1
BQP_DATA, 598, 2589, -1283.000000, -1489.000000, -3608.000000, -3814.000000, 256.000655, 1630, 1022
